c nIsolatedPIs 8
c maxPI 24
p cnf 109 256
c gate 25 -4 -16 0
-4 -25 0
-16 -25 0
4 16 25 0
c gate 26 1 13 0
1 -26 0
13 -26 0
-1 -13 26 0
c gate 27 -25 26 0
-25 -27 0
26 -27 0
25 -26 27 0
c gate 28 5 17 0
5 -28 0
17 -28 0
-5 -17 28 0
c gate 29 4 16 0
4 -29 0
16 -29 0
-4 -16 29 0
c gate 30 -28 -29 0
-28 -30 0
-29 -30 0
28 29 30 0
c gate 31 -27 30 0
-27 -31 0
30 -31 0
27 -30 31 0
c gate 32 -6 -18 0
-6 -32 0
-18 -32 0
6 18 32 0
c gate 33 -5 -17 0
-5 -33 0
-17 -33 0
5 17 33 0
c gate 34 -32 -33 0
-32 -34 0
-33 -34 0
32 33 34 0
c gate 35 -31 34 0
-31 -35 0
34 -35 0
31 -34 35 0
c gate 36 7 19 0
7 -36 0
19 -36 0
-7 -19 36 0
c gate 37 6 18 0
6 -37 0
18 -37 0
-6 -18 37 0
c gate 38 -36 -37 0
-36 -38 0
-37 -38 0
36 37 38 0
c gate 39 -35 38 0
-35 -39 0
38 -39 0
35 -38 39 0
c gate 40 -8 -20 0
-8 -40 0
-20 -40 0
8 20 40 0
c gate 41 -7 -19 0
-7 -41 0
-19 -41 0
7 19 41 0
c gate 42 -40 -41 0
-40 -42 0
-41 -42 0
40 41 42 0
c gate 43 -39 42 0
-39 -43 0
42 -43 0
39 -42 43 0
c gate 44 8 20 0
8 -44 0
20 -44 0
-8 -20 44 0
c gate 45 -9 21 0
-9 -45 0
21 -45 0
9 -21 45 0
c gate 46 9 -21 0
9 -46 0
-21 -46 0
-9 21 46 0
c gate 47 -45 -46 0
-45 -47 0
-46 -47 0
45 46 47 0
c gate 48 -44 -47 0
-44 -48 0
-47 -48 0
44 47 48 0
c gate 49 -43 48 0
-43 -49 0
48 -49 0
43 -48 49 0
c gate 50 -10 -22 0
-10 -50 0
-22 -50 0
10 22 50 0
c gate 51 -9 -21 0
-9 -51 0
-21 -51 0
9 21 51 0
c gate 52 -50 -51 0
-50 -52 0
-51 -52 0
50 51 52 0
c gate 53 10 22 0
10 -53 0
22 -53 0
-10 -22 53 0
c gate 54 11 23 0
11 -54 0
23 -54 0
-11 -23 54 0
c gate 55 -53 -54 0
-53 -55 0
-54 -55 0
53 54 55 0
c gate 56 -52 55 0
-52 -56 0
55 -56 0
52 -55 56 0
c gate 57 -12 -24 0
-12 -57 0
-24 -57 0
12 24 57 0
c gate 58 -11 -23 0
-11 -58 0
-23 -58 0
11 23 58 0
c gate 59 -57 -58 0
-57 -59 0
-58 -59 0
57 58 59 0
c gate 60 -56 59 0
-56 -60 0
59 -60 0
56 -59 60 0
c gate 61 2 14 0
2 -61 0
14 -61 0
-2 -14 61 0
c gate 62 12 24 0
12 -62 0
24 -62 0
-12 -24 62 0
c gate 63 -61 -62 0
-61 -63 0
-62 -63 0
61 62 63 0
c gate 64 -60 63 0
-60 -64 0
63 -64 0
60 -63 64 0
c gate 65 3 15 0
3 -65 0
15 -65 0
-3 -15 65 0
c gate 66 -2 -14 0
-2 -66 0
-14 -66 0
2 14 66 0
c gate 67 -3 -15 0
-3 -67 0
-15 -67 0
3 15 67 0
c gate 68 -66 -67 0
-66 -68 0
-67 -68 0
66 67 68 0
c gate 69 -65 68 0
-65 -69 0
68 -69 0
65 -68 69 0
c gate 70 -64 69 0
-64 -70 0
69 -70 0
64 -69 70 0
c gate 71 -4 16 0
-4 -71 0
16 -71 0
4 -16 71 0
c gate 72 -1 13 0
-1 -72 0
13 -72 0
1 -13 72 0
c gate 73 -71 -72 0
-71 -73 0
-72 -73 0
71 72 73 0
c gate 74 4 -16 0
4 -74 0
-16 -74 0
-4 16 74 0
c gate 75 5 -17 0
5 -75 0
-17 -75 0
-5 17 75 0
c gate 76 -74 -75 0
-74 -76 0
-75 -76 0
74 75 76 0
c gate 77 -73 76 0
-73 -77 0
76 -77 0
73 -76 77 0
c gate 78 -6 18 0
-6 -78 0
18 -78 0
6 -18 78 0
c gate 79 -5 17 0
-5 -79 0
17 -79 0
5 -17 79 0
c gate 80 -78 -79 0
-78 -80 0
-79 -80 0
78 79 80 0
c gate 81 -77 80 0
-77 -81 0
80 -81 0
77 -80 81 0
c gate 82 7 -19 0
7 -82 0
-19 -82 0
-7 19 82 0
c gate 83 6 -18 0
6 -83 0
-18 -83 0
-6 18 83 0
c gate 84 -82 -83 0
-82 -84 0
-83 -84 0
82 83 84 0
c gate 85 -81 84 0
-81 -85 0
84 -85 0
81 -84 85 0
c gate 86 -40 -44 0
-40 -86 0
-44 -86 0
40 44 86 0
c gate 87 -7 19 0
-7 -87 0
19 -87 0
7 -19 87 0
c gate 88 -86 -87 0
-86 -88 0
-87 -88 0
86 87 88 0
c gate 89 -85 88 0
-85 -89 0
88 -89 0
85 -88 89 0
c gate 90 8 -20 0
8 -90 0
-20 -90 0
-8 20 90 0
c gate 91 -46 -90 0
-46 -91 0
-90 -91 0
46 90 91 0
c gate 92 -50 -53 0
-50 -92 0
-53 -92 0
50 53 92 0
c gate 93 -45 -92 0
-45 -93 0
-92 -93 0
45 92 93 0
c gate 94 -91 93 0
-91 -94 0
93 -94 0
91 -93 94 0
c gate 95 10 -22 0
10 -95 0
-22 -95 0
-10 22 95 0
c gate 96 11 -23 0
11 -96 0
-23 -96 0
-11 23 96 0
c gate 97 -95 -96 0
-95 -97 0
-96 -97 0
95 96 97 0
c gate 98 -12 24 0
-12 -98 0
24 -98 0
12 -24 98 0
c gate 99 -11 23 0
-11 -99 0
23 -99 0
11 -23 99 0
c gate 100 -98 -99 0
-98 -100 0
-99 -100 0
98 99 100 0
c gate 101 -97 100 0
-97 -101 0
100 -101 0
97 -100 101 0
c gate 102 -61 -66 0
-61 -102 0
-66 -102 0
61 66 102 0
c gate 103 12 -24 0
12 -103 0
-24 -103 0
-12 24 103 0
c gate 104 -102 -103 0
-102 -104 0
-103 -104 0
102 103 104 0
c gate 105 -101 104 0
-101 -105 0
104 -105 0
101 -104 105 0
c gate 106 -94 -105 0
-94 -106 0
-105 -106 0
94 105 106 0
c gate 107 -89 106 0
-89 -107 0
106 -107 0
89 -106 107 0
c gate 108 -70 107 0
-70 -108 0
107 -108 0
70 -107 108 0
c gate 109 -49 108 0
-49 -109 0
108 -109 0
49 -108 109 0
c PO
-109 0
